
<<< setup


<<< generate

Version identifier: 12.10.0.0 | 2019-11-26 | 843d4de2ae
CPXPARAM_TimeLimit                               1200
Tried aggregator 2 times.
MIP Presolve eliminated 5190841 rows and 2958556 columns.
MIP Presolve modified 412064 coefficients.
Aggregator did 1122 substitutions.
Reduced MIP has 58687 rows, 59372 columns, and 364475 nonzeros.
Reduced MIP has 59322 binaries, 0 generals, 0 SOSs, and 0 indicators.
Presolve time = 5.92 sec. (3732.22 ticks)
Found incumbent of value 0.000000 after 9.30 sec. (4785.25 ticks)
Probing fixed 592 vars, tightened 0 bounds.
Probing time = 3.98 sec. (758.60 ticks)
Tried aggregator 1 time.
Detecting symmetries...
MIP Presolve eliminated 574 rows and 592 columns.
Reduced MIP has 58113 rows, 58780 columns, and 360461 nonzeros.
Reduced MIP has 58730 binaries, 0 generals, 0 SOSs, and 0 indicators.
Presolve time = 0.50 sec. (251.69 ticks)
Probing fixed 4 vars, tightened 0 bounds.
Probing time = 0.70 sec. (97.82 ticks)
Clique table members: 201274.
MIP emphasis: balance optimality and feasibility.
MIP search method: dynamic search.
Parallel mode: deterministic, using up to 4 threads.
Root relaxation solution time = 2.38 sec. (1870.73 ticks)

        Nodes                                         Cuts/
   Node  Left     Objective  IInf  Best Integer    Best Bound    ItCnt     Gap

*     0+    0                            0.0000   137121.0000              --- 
      0     0   137121.0000  1046        0.0000   137121.0000     9460     --- 
*     0+    0                          266.0000   137121.0000              --- 
      0     0   137121.0000  1046      266.0000      Cuts: 15     9725     --- 
      0     0   137121.0000  1046      266.0000    Cuts: 6292    24173     --- 
      0     0   137121.0000  1046      266.0000     Cuts: 543    33491     --- 
      0     0   137121.0000  1046      266.0000    Cuts: 8573    48244     --- 
Heuristic still looking.
Heuristic still looking.
      0     2   137121.0000   892      266.0000   137121.0000    74417     --- 
Elapsed time = 511.22 sec. (322875.83 ticks, tree = 0.02 MB, solutions = 2)
      1     3   137121.0000  1024      266.0000   137121.0000    90678     --- 
      2     4   137121.0000  1201      266.0000   137121.0000   110999     --- 
      3     5   137121.0000  1082      266.0000   137121.0000   125200     --- 
      5     4   137121.0000  1166      266.0000   137121.0000   106416     --- 
      6     7   137121.0000  1165      266.0000   137121.0000   147284     --- 
      7     8   137121.0000  1167      266.0000   137121.0000   152786     --- 
      8     9   137121.0000  1182      266.0000   137121.0000   156926     --- 
     10     3   137121.0000   906      266.0000   137121.0000   103632     --- 
     12    11   137121.0000  1302      266.0000   137121.0000   158486     --- 
     16    10   137121.0000  1320      266.0000   137121.0000   194473     --- 
Elapsed time = 622.45 sec. (371475.47 ticks, tree = 0.07 MB, solutions = 2)
     19    11   137121.0000  1353      266.0000   137121.0000   215013     --- 
     20    12   137121.0000  1299      266.0000   137121.0000   215974     --- 
     21    14   137121.0000  1284      266.0000   137121.0000   171798     --- 
     23    13   137121.0000  1312      266.0000   137121.0000   216351     --- 
     25    12   137121.0000  1240      266.0000   137121.0000   196213     --- 
     29    20   137121.0000  1198      266.0000   137121.0000   233005     --- 
     32    16   137121.0000  1316      266.0000   137121.0000   222764     --- 
     36    15   137121.0000  1126      266.0000   137121.0000   204937     --- 
     39    16   137121.0000  1130      266.0000   137121.0000   206503     --- 
     40    24   137121.0000  1235      266.0000   137121.0000   243734     --- 
Elapsed time = 663.78 sec. (386921.74 ticks, tree = 2.24 MB, solutions = 2)
     43    26   137121.0000  1241      266.0000   137121.0000   248061     --- 
     46    18   137121.0000  1061      266.0000   137121.0000   242250     --- 
     51    19   137121.0000   989      266.0000   137121.0000   244369     --- 
     56    17   137121.0000  1292      266.0000   137121.0000   234817     --- 
     59    42    infeasible            266.0000   137121.0000   321388     --- 
     61    17   137121.0000  1130      266.0000   137121.0000   206505     --- 
     62    35    infeasible            266.0000   137121.0000   311807     --- 
     63    54   137121.0000  1322      266.0000   137121.0000   378168     --- 
     64    55   137121.0000  1271      266.0000   137121.0000   381967     --- 
     67    53   137121.0000  1078      266.0000   137121.0000   420007     --- 
Elapsed time = 768.89 sec. (418230.63 ticks, tree = 2.97 MB, solutions = 2)
     69    57   137121.0000  1194      266.0000   137121.0000   385752     --- 
     72    59   137121.0000  1229      266.0000   137121.0000   389930     --- 
     77    55   137121.0000  1175      266.0000   137121.0000   427452     --- 
     90    54   137121.0000  1078      266.0000   137121.0000   370378     --- 
     91    59   137121.0000  1046      266.0000   137121.0000   411008     --- 
     95    54   137121.0000  1533      266.0000   137121.0000   441932     --- 
     98    61   137121.0000  1030      266.0000   137121.0000   415987     --- 
    101    63   137121.0000  1010      266.0000   137121.0000   419115     --- 
    103    58   137121.0000  1205      266.0000   137121.0000   449898     --- 
    108    75   137121.0000  1015      266.0000   137121.0000   489679     --- 
Elapsed time = 798.52 sec. (431013.37 ticks, tree = 3.09 MB, solutions = 2)
    113    78   137121.0000  1030      266.0000   137121.0000   495555     --- 
    123    80   137121.0000  1061      266.0000   137121.0000   499739     --- 
    134    89   137121.0000  1104      266.0000   137121.0000   518100     --- 
    140    65   137121.0000  1198      266.0000   137121.0000   493447     --- 
    145    66   137121.0000  1116      266.0000   137121.0000   495071     --- 
    152    88   137121.0000  1082      266.0000   137121.0000   516012     --- 
    158    94   137121.0000  1113      266.0000   137121.0000   560433     --- 
    164    97   137121.0000  1094      266.0000   137121.0000   532598     --- 
    170   112   137121.0000  1040      266.0000   137121.0000   604102     --- 
    175    98   137121.0000  1013      266.0000   137121.0000   563757     --- 
Elapsed time = 828.14 sec. (444005.26 ticks, tree = 5.14 MB, solutions = 2)
    182   131   137121.0000  1045      266.0000   137121.0000   639355     --- 
    190   114   137121.0000  1000      266.0000   137121.0000   607832     --- 
    193   102   137121.0000  1183      266.0000   137121.0000   558660     --- 
    198   132   137121.0000   988      266.0000   137121.0000   642530     --- 
    207   101   137121.0000  1025      266.0000   137121.0000   569725     --- 
    212   100    infeasible            266.0000   137121.0000   571055     --- 
    218   148   137121.0000   936      266.0000   137121.0000   678101     --- 
    226   149   137121.0000   938      266.0000   137121.0000   679355     --- 
    228   149   137121.0000   922      266.0000   137121.0000   680448     --- 
    229   150   137121.0000   916      266.0000   137121.0000   681603     --- 
Elapsed time = 855.16 sec. (456246.03 ticks, tree = 8.62 MB, solutions = 2)
    230   119   137121.0000   735      266.0000   137121.0000   615572     --- 
    235   152   137121.0000  1023      266.0000   137121.0000   685746     --- 
    237   153   137121.0000  1038      266.0000   137121.0000   688093     --- 
    240   153   137121.0000   889      266.0000   137121.0000   686545     --- 
    242   133   137121.0000  1013      266.0000   137121.0000   646508     --- 
    245   156   137121.0000  1024      266.0000   137121.0000   692987     --- 
    249   176   137121.0000   863      266.0000   137121.0000   722299     --- 
    252   167   137121.0000   983      266.0000   137121.0000   710288     --- 
    254   178   137121.0000   818      266.0000   137121.0000   724210     --- 
    257   159   137121.0000   915      266.0000   137121.0000   696713     --- 
Elapsed time = 884.34 sec. (468655.41 ticks, tree = 10.15 MB, solutions = 2)
    261   180   137121.0000   780      266.0000   137121.0000   726327     --- 
    268   182   137121.0000   838      266.0000   137121.0000   727189     --- 
    272   160   137121.0000   921      266.0000   137121.0000   699259     --- 
    279   172   137121.0000   958      266.0000   137121.0000   718255     --- 
    285   174   137121.0000   900      266.0000   137121.0000   722990     --- 
    288   191   137121.0000   965      266.0000   137121.0000   751657     --- 
    289   184   137121.0000  1066      266.0000   137121.0000   739754     --- 
    292   184   137121.0000   839      266.0000   137121.0000   727658     --- 
    297   193   137121.0000   967      266.0000   137121.0000   755939     --- 
    299   202   137121.0000   861      266.0000   137121.0000   761584     --- 
Elapsed time = 921.09 sec. (484782.43 ticks, tree = 11.21 MB, solutions = 2)
    309   195   137121.0000   902      266.0000   137121.0000   757247     --- 
    317   209   137121.0000   978      266.0000   137121.0000   776827     --- 
    327   209   137121.0000   997      266.0000   137121.0000   777269     --- 
    328   210   137121.0000   978      266.0000   137121.0000   777801     --- 
    334   203   137121.0000   849      266.0000   137121.0000   763006     --- 
    339   211   137121.0000   881      266.0000   137121.0000   778974     --- 
    347   215   137121.0000   873      266.0000   137121.0000   793225     --- 
    352   209   137121.0000  1080      266.0000   137121.0000   787270     --- 
    354   210   137121.0000  1059      266.0000   137121.0000   788232     --- 
    356   213    infeasible            266.0000   137121.0000   793270     --- 
Elapsed time = 966.45 sec. (500165.55 ticks, tree = 13.77 MB, solutions = 2)
    358   209   137121.0000   697      266.0000   137121.0000   774493     --- 
    361   212    infeasible            266.0000   137121.0000   793673     --- 
    363   221    infeasible            266.0000   137121.0000   807789     --- 
    364   227    infeasible            266.0000   137121.0000   818513     --- 
    366   211    infeasible            266.0000   137121.0000   793999     --- 
    368   226    infeasible            266.0000   137121.0000   819308     --- 
    370   235    infeasible            266.0000   137121.0000   835265     --- 
    372   225    infeasible            266.0000   137121.0000   820575     --- 
    373   231    infeasible            266.0000   137121.0000   837599     --- 
    378   229    infeasible            266.0000   137121.0000   837809     --- 
Elapsed time = 1066.86 sec. (521873.56 ticks, tree = 14.59 MB, solutions = 2)
    382   225    infeasible            266.0000   137121.0000   845857     --- 
    385   224    infeasible            266.0000   137121.0000   846638     --- 
    386   216    infeasible            266.0000   137121.0000   867180     --- 
    390   215    infeasible            266.0000   137121.0000   867411     --- 
    392   214    infeasible            266.0000   137121.0000   867554     --- 
    394   216   137121.0000   931      266.0000   137121.0000   887661     --- 
    396   220   137121.0000  1022      266.0000   137121.0000   879510     --- 

Implied bound cuts applied:  1581
Flow cuts applied:  100
Mixed integer rounding cuts applied:  37

Root node processing (before b&c):
  Real time             =  469.08 sec. (289649.31 ticks)
Parallel b&c, 4 threads:
  Real time             =  731.34 sec. (274471.40 ticks)
  Sync time (average)   =  121.16 sec.
  Wait time (average)   =    0.00 sec.
                          ------------
Total (root+branch&cut) = 1200.42 sec. (564120.71 ticks)

<<< solve


OBJECTIVE: 266

<<< post process


<<< done

